RT is False
Default write of storage_offers_DA.csv just to have a file (but constraint should be inactive)
Reading model...
...model read.
creating competitive generators file...
...competitive generators recorded.
Loading data...
.. day-ahead data read.
Compiling instance...
...instance created.
Creating Offer Mitigation (model will solve as dispatch if TRUE)...
NOTE: storage offers will not be mitigated
...storage offer mitigation file created
Converting model to MPEC...
...converted
NOTE: initial MIP solve with only storage competitive to get feasible solution
Solving...

Welcome to IBM(R) ILOG(R) CPLEX(R) Interactive Optimizer 12.9.0.0
  with Simplex, Mixed Integer & Barrier Optimizers
5725-A06 5725-A29 5724-Y48 5724-Y49 5724-Y54 5724-Y55 5655-Y21
Copyright IBM Corp. 1988, 2019.  All Rights Reserved.

Type 'help' for a list of available commands.
Type 'help' followed by a command name for more
information on commands.

CPLEX> Logfile 'cplex.log' closed.
Logfile 'C:\Users\llavin\Desktop\test919\logs\tmpk054mqp3.cplex.log' open.
CPLEX> New value for parallel optimization mode: -1
CPLEX> New value for mixed integer optimality gap tolerance: 0.01
CPLEX> New value for integrality tolerance: 1e-09
CPLEX> New value for feasibility tolerance: 0.01
CPLEX> New value for deterministic time limit in ticks: 75000
CPLEX> Problem 'C:\Users\llavin\Desktop\test919\logs\tmptpwe9k8f.pyomo.lp' read.
Read time = 0.23 sec. (14.73 ticks)
CPLEX> Problem name         : C:\Users\llavin\Desktop\test919\logs\tmptpwe9k8f.pyomo.lp
Objective sense      : Maximize
Variables            :   53805  [Nneg: 1,  Box: 22000,  Free: 4464,
                                 Binary: 27340]
Objective nonzeros   :    9126
Linear constraints   :  123205  [Less: 41346,  Greater: 59096,  Equal: 22763]
  Nonzeros           :  291850
  RHS nonzeros       :   67588

Variables            : Min LB: -5000.000        Max UB: 1000000.       
Objective nonzeros   : Min   : 0.1000000        Max   : 2500.000       
Linear constraints   :
  Nonzeros           : Min   : 0.1000000        Max   : 1000000.       
  RHS nonzeros       : Min   : 0.1000000        Max   : 1000000.       
CPLEX> CPXPARAM_Parallel                                -1
CPXPARAM_Simplex_Tolerances_Feasibility          0.01
CPXPARAM_DetTimeLimit                            75000
CPXPARAM_MIP_Tolerances_MIPGap                   0.01
CPXPARAM_MIP_Tolerances_Integrality              1.0000000000000001e-09
Tried aggregator 3 times.
MIP Presolve eliminated 88224 rows and 18627 columns.
MIP Presolve added 3470 rows and 0 columns.
MIP Presolve modified 24992 coefficients.
Aggregator did 12963 substitutions.
Reduced MIP has 25488 rows, 21738 columns, and 72521 nonzeros.
Reduced MIP has 8594 binaries, 0 generals, 0 SOSs, and 0 indicators.
Presolve time = 0.28 sec. (173.89 ticks)
Probing fixed 383 vars, tightened 2919 bounds.
Probing time = 1.20 sec. (879.89 ticks)
Tried aggregator 2 times.
MIP Presolve eliminated 869 rows and 771 columns.
MIP Presolve modified 2310 coefficients.
Aggregator did 45 substitutions.
Reduced MIP has 24574 rows, 20922 columns, and 69872 nonzeros.
Reduced MIP has 8209 binaries, 0 generals, 0 SOSs, and 0 indicators.
Presolve time = 0.09 sec. (74.09 ticks)
Probing time = 0.05 sec. (16.58 ticks)
Clique table members: 6238.
MIP emphasis: balance optimality and feasibility.
MIP search method: dynamic search.
Parallel mode: opportunistic, using up to 32 threads.
Root relaxation solution time = 0.56 sec. (717.00 ticks)

        Nodes                                         Cuts/
   Node  Left     Objective  IInf  Best Integer    Best Bound    ItCnt     Gap

      0     0      336.6079   831                    336.6079     7535         
      0    25      317.6641     2                     Cuts: 4     7637         
Elapsed time = 8.78 sec. (5204.36 ticks, tree = 0.02 MB, solutions = 0)
*   179    52      integral     0      321.0385      330.4542     7745    2.93%
    296    54    infeasible            321.0385      330.4542     7770    2.93%
    642    40        cutoff            321.0385      329.7185     8474    2.70%
    956    58      326.5982     6      321.0385      329.7185    15364    2.70%
   1167   245      326.5982     3      321.0385      329.7185    23375    2.70%
   1377   340      323.7984     2      321.0385      329.7185    24324    2.70%
   1581   377      329.7723     3      321.0385      329.7185    24758    2.70%
   1761   379      329.7723     3      321.0385      329.7185    24824    2.70%
   1940   378    infeasible            321.0385      329.7185    24826    2.70%
   2113   397      327.6758     2      321.0385      329.7185    25164    2.70%
   2795   418      321.9569     2      321.0385      329.7185    25380    2.70%
Elapsed time = 21.58 sec. (8313.10 ticks, tree = 2.54 MB, solutions = 1)
   3284   515      324.2557     9      321.0385      329.7185    26018    2.70%
   3661   625    infeasible            321.0385      329.7185    26631    2.70%
   4052   662      329.7648     2      321.0385      329.7185    26830    2.70%
   4521   699      327.6683     2      321.0385      329.7185    27005    2.70%
   4869   786      323.7696     3      321.0385      329.7185    27601    2.70%
   5231   866      328.7671    14      321.0385      329.7185    28362    2.70%
   5538   815      327.4984     2      321.0385      329.7185    27790    2.70%
   5837   828      327.6683     2      321.0385      329.7185    27846    2.70%
   6134   899      321.9494     3      321.0385      329.7185    28348    2.70%
   6384  1019      329.7648     4      321.0385      329.7185    29553    2.70%
Elapsed time = 45.25 sec. (17872.04 ticks, tree = 6.26 MB, solutions = 1)
   6641   999      323.8129     5      321.0385      329.7185    29029    2.70%
   6922   971      321.7019     3      321.0385      329.7185    28834    2.70%
   7230  1016      329.7648     3      321.0385      329.7185    29563    2.70%
   7529  1123      321.0981     4      321.0385      329.7185    30633    2.70%
   7836  1080      327.6758     4      321.0385      329.7185    30157    2.70%
   8132  1516      326.4624     7      321.0385      329.7185    34309    2.70%
   8456  1161      324.8207     2      321.0385      329.7185    30947    2.70%
   8716  1242      325.8235     4      321.0385      329.7185    32105    2.70%
   9002  1254      327.6758     5      321.0385      329.7185    32174    2.70%
   9317  1427        cutoff            321.0385      329.7185    33583    2.70%
Elapsed time = 60.70 sec. (27432.19 ticks, tree = 9.19 MB, solutions = 1)
   9665  1565      323.8129     2      321.0385      329.7185    34943    2.70%
   9974  1640      329.7648     3      321.0385      329.7185    35194    2.70%
  10232  1912      321.9494     5      321.0385      329.7185    37267    2.70%
  10430  1993      321.6943     2      321.0385      329.7185    38516    2.70%
  10611  2363      325.0349     2      321.0385      329.7185    41799    2.70%
  10780  2342        cutoff            321.0385      329.7185    41679    2.70%
  10900  2318      321.7019     5      321.0385      329.7185    41363    2.70%
  11003  2428      324.7799     4      321.0385      329.7185    42599    2.70%
  11047  2410      323.1980     2      321.0385      329.7185    42575    2.70%
* 11053+ 1865                          324.1518      329.7187             1.72%
* 11053+    0                          333.8013      329.7187            -1.22%
  11053     0        cutoff            333.8013      329.7187    49937   -1.22%
Elapsed time = 68.16 sec. (38156.49 ticks, tree = 0.01 MB, solutions = 1)

Implied bound cuts applied:  6
Flow cuts applied:  38
Mixed integer rounding cuts applied:  9
Gomory fractional cuts applied:  51
Warning: integer solution contains unscaled infeasibilities.

Root node processing (before b&c):
  Real time             =    7.37 sec. (5161.79 ticks)
Parallel b&c, 32 threads:
  Real time             =   60.80 sec. (32996.52 ticks)
  Sync time (average)   =    0.86 sec.
  Wait time (average)   =    0.00 sec.
                          ------------
Total (root+branch&cut) =   68.17 sec. (38158.31 ticks)

Solution pool: 2 solutions saved.

Maximum unscaled integer infeasibility = 6.26998e-05.
MIP - Integer optimal with unscaled infeasibilities:  Objective =  3.3380130242e+02
Solution time =   68.22 sec.  Iterations = 49937  Nodes = 11053
Deterministic time = 38158.46 ticks  (559.35 ticks/sec)

CPLEX> Incumbent solution written to file 'C:\Users\llavin\Desktop\test919\logs\tmpkgjo_v18.cplex.sol'.
CPLEX> NOTE: no warmstart specified for MIP iteration, default behavior is true
NOTE: resolving with all competitive generators using storage-only solution to warmstart
Solving...

Welcome to IBM(R) ILOG(R) CPLEX(R) Interactive Optimizer 12.9.0.0
  with Simplex, Mixed Integer & Barrier Optimizers
5725-A06 5725-A29 5724-Y48 5724-Y49 5724-Y54 5724-Y55 5655-Y21
Copyright IBM Corp. 1988, 2019.  All Rights Reserved.

Type 'help' for a list of available commands.
Type 'help' followed by a command name for more
information on commands.

CPLEX> Logfile 'cplex.log' closed.
Logfile 'C:\Users\llavin\Desktop\test919\logs\tmplhjnilcw.cplex.log' open.
CPLEX> New value for parallel optimization mode: -1
CPLEX> New value for mixed integer optimality gap tolerance: 0.01
CPLEX> New value for integrality tolerance: 1e-09
CPLEX> New value for feasibility tolerance: 0.01
CPLEX> New value for deterministic time limit in ticks: 75000
CPLEX> Problem 'C:\Users\llavin\Desktop\test919\logs\tmpbr7x237a.pyomo.lp' read.
Read time = 0.23 sec. (14.75 ticks)
CPLEX> MIP start file 'C:\Users\llavin\Desktop\test919\logs\tmp3aees_j_.cplex.mst' read.
CPLEX> Problem name         : C:\Users\llavin\Desktop\test919\logs\tmpbr7x237a.pyomo.lp
Objective sense      : Maximize
Variables            :   54525  [Nneg: 1,  Box: 22720,  Free: 4464,
                                 Binary: 27340]
Objective nonzeros   :    9822
Linear constraints   :  123205  [Less: 41346,  Greater: 59096,  Equal: 22763]
  Nonzeros           :  291850
  RHS nonzeros       :   67588

Variables            : Min LB: -5000.000        Max UB: 1000000.       
Objective nonzeros   : Min   : 0.1000000        Max   : 2500.000       
Linear constraints   :
  Nonzeros           : Min   : 0.1000000        Max   : 1000000.       
  RHS nonzeros       : Min   : 0.1000000        Max   : 1000000.       
CPLEX> CPXPARAM_Parallel                                -1
CPXPARAM_Simplex_Tolerances_Feasibility          0.01
CPXPARAM_DetTimeLimit                            75000
CPXPARAM_MIP_Tolerances_MIPGap                   0.01
CPXPARAM_MIP_Tolerances_Integrality              1.0000000000000001e-09
Warning:  No solution found from 1 MIP starts.
Retaining values of one MIP start for possible repair.
Tried aggregator 3 times.
MIP Presolve eliminated 88224 rows and 19347 columns.
MIP Presolve added 3470 rows and 0 columns.
MIP Presolve modified 24992 coefficients.
Aggregator did 12963 substitutions.
Reduced MIP has 25488 rows, 21738 columns, and 72521 nonzeros.
Reduced MIP has 8594 binaries, 0 generals, 0 SOSs, and 0 indicators.
Presolve time = 0.28 sec. (174.25 ticks)
Probing fixed 383 vars, tightened 2919 bounds.
Probing time = 1.20 sec. (879.89 ticks)
Tried aggregator 2 times.
MIP Presolve eliminated 869 rows and 771 columns.
MIP Presolve modified 2310 coefficients.
Aggregator did 45 substitutions.
Reduced MIP has 24574 rows, 20922 columns, and 69872 nonzeros.
Reduced MIP has 8209 binaries, 0 generals, 0 SOSs, and 0 indicators.
Presolve time = 0.11 sec. (74.10 ticks)
Probing time = 0.05 sec. (16.58 ticks)
Clique table members: 6238.
MIP emphasis: balance optimality and feasibility.
MIP search method: dynamic search.
Parallel mode: opportunistic, using up to 32 threads.
Root relaxation solution time = 0.44 sec. (339.14 ticks)

        Nodes                                         Cuts/
   Node  Left     Objective  IInf  Best Integer    Best Bound    ItCnt     Gap

      0     0    64078.5179  2198                  64078.5179     7954         
      0     0    64057.2548   653                   Cuts: 854     8370         
      0     0    64051.6423   491                   Cuts: 668     8632         
      0     0    64049.7272   406                   Cuts: 329     8772         
      0     0    64049.6274   380                   Cuts: 130     8820         
      0     0    64049.4739   369                   Cuts: 103     8844         
      0     0    64049.4739   366                    Cuts: 55     8849         
      0     0    64049.4739   365                    Cuts: 29     8849         
Repair heuristic found nothing.
      0    34    63850.9307   343                    Cuts: 31     9282         
Elapsed time = 11.56 sec. (7298.26 ticks, tree = 0.05 MB, solutions = 0)
    301    67    63963.2434   344                  64028.6624     9762         
    809   326    23201.3757   321                  64028.6624    14044         
   1430   943    62426.9113   282                  64028.6624    25089         
   2175  1020    63099.6768   285                  64028.6624    25999         
   3021  1686    62546.1847   310                  64023.9789    32281         
   3783  2338    62869.9221   257                  64023.9789    36064         
   4651  3059    62879.5409   251                  64023.9789    39289         
   5474  3717    62724.9429   213                  64023.9789    40483         
   6472  4206    62301.0982   203                  64023.9789    40980         
*  8488+ 3708                        62510.7489    64023.9789             2.42%
Elapsed time = 26.97 sec. (9900.77 ticks, tree = 27.68 MB, solutions = 3)
* 10702  3814      integral     0    63622.1324    64023.9789    44242    0.63%
* 11424  4583      integral     0    63830.3303    64023.9789    47622    0.30%

Clique cuts applied:  54
Cover cuts applied:  6
Implied bound cuts applied:  79
Flow cuts applied:  683
Mixed integer rounding cuts applied:  38
Gomory fractional cuts applied:  45

Root node processing (before b&c):
  Real time             =    9.42 sec. (7251.55 ticks)
Parallel b&c, 32 threads:
  Real time             =   20.98 sec. (3696.63 ticks)
  Sync time (average)   =    0.75 sec.
  Wait time (average)   =    0.00 sec.
                          ------------
Total (root+branch&cut) =   30.41 sec. (10948.18 ticks)

Solution pool: 6 solutions saved.

MIP - Integer optimal, tolerance (0.01/1e-06):  Objective =  6.3830330314e+04
Current MIP best bound =  6.4023978863e+04 (gap = 193.649, 0.30%)
Solution time =   30.47 sec.  Iterations = 51994  Nodes = 11427 (1016)
Deterministic time = 10948.34 ticks  (359.33 ticks/sec)

CPLEX> Incumbent solution written to file 'C:\Users\llavin\Desktop\test919\logs\tmpanux7tx_.cplex.sol'.
CPLEX> Exporting results... 
